4 10
95 128 99 73 
0 83 69 60 87 36 6 21 24 75 76 81 58 9 48 24 51 30 40 100 20 2
1 44 89 60 32 69 66 85 1 70 52 2 39 30 51 24 41 59 69 75 60 3
2 41 19 42 90 50 60 51 39 50 10 14 40 79 60 74 32 38 28 100 91 2
3 53 16 30 63 6 17 91 64 18 60 4 6 97 71 86 37 86 65 85 80 1
4 31 89 7 40 76 82 44 33 29 52 76 9 77 75 56 97 62 50 93 76 4
5 54 7 63 61 71 8 80 62 90 62 47 36 66 36 82 33 27 11 74 60 4
6 23 30 71 57 20 83 76 10 20 13 55 82 37 49 18 66 63 89 91 26 4
7 97 29 37 67 78 6 10 44 64 16 27 89 100 16 18 54 14 51 8 79 3
8 40 30 100 97 53 71 5 38 60 72 38 67 12 87 33 21 25 16 93 51 3
9 84 95 52 50 13 96 81 51 30 83 21 4 93 69 20 24 18 41 12 75 2
